# Node Net
4591   1
7651   1
5400   1
7741   1
 82   1
4411   1
8042   2
6480   2
5760   2
8066   2
8032   2
3330   2
2070   3
 22   3
1891   3
1620   3
720   3
 89   4
8100   4
5310   4
361   4
 77   4
3781   5
3060   5
6840   5
8092   6
8069   6
8076   6
 43   7
2161   7
811   7
2610   8
 14   8
8095   8
 13   9
 71   9
8016   9
 27  10
 61  10
8067  10
